; benchmark generated from python API
(set-info :status unknown)
(declare-fun S_3 () Real)
(declare-fun L_3 () Real)
(declare-fun A_3 () Real)
(declare-fun S_2 () Real)
(declare-fun L_2 () Real)
(declare-fun A_2 () Real)
(declare-fun S_1 () Real)
(declare-fun L_1 () Real)
(declare-fun A_1 () Real)
(declare-fun L_0 () Real)
(declare-fun S_0 () Real)
(declare-fun A_0 () Real)
(declare-fun S_4 () Real)
(declare-fun L_4 () Real)
(declare-fun A_4 () Real)
(declare-fun B () Real)
(assert
 (let (($x34 (>= L_0 0.0)))
 (let (($x463 (>= B 5.0)))
 (let ((?x1240 (* 2.0 B)))
 (let ((?x961 (* 2.0 L_1)))
 (let ((?x3221 (* 2.0 S_0)))
 (let ((?x960 (* (- 2.0) A_1)))
 (let ((?x387 (* (- 1.0) A_2)))
 (let (($x51 (= L_1 L_0)))
 (let (($x50861 (<= (+ (* (- 1.0) A_4) A_3 (* (- 1.0) L_3) L_4 B) (- 5.0))))
 (let (($x81 (= L_4 L_3)))
 (let (($x131346 (or $x81 $x50861 (<= (+ (* (- 1.0) A_4) A_1 (* (- 1.0) L_1) L_4) (- 15.0)))))
 (let ((?x486 (* (- 1.0) L_1)))
 (let ((?x432 (* (- 1.0) S_1)))
 (let ((?x460 (* (- 1.0) L_3)))
 (let ((?x379 (* (- 1.0) A_4)))
 (let ((?x1030 (* (- 3.0) B)))
 (let ((?x4359 (* (- 4.0) L_1)))
 (let ((?x2021 (* (- 3.0) S_1)))
 (let ((?x4367 (* 4.0 A_1)))
 (let ((?x503 (* (- 1.0) B)))
 (let ((?x877 (* (- 2.0) L_1)))
 (let ((?x1948 (* (- 2.0) S_1)))
 (let ((?x473 (* (- 1.0) L_2)))
 (let ((?x922 (* 2.0 A_1)))
 (let (($x133284 (or $x81 (<= (+ ?x379 A_2 ?x922 ?x473 ?x1948 ?x877 L_4 ?x503) 0.0) (<= (+ ?x379 ?x4367 ?x2021 ?x4359 L_4 ?x1030) 0.0) (<= (+ ?x379 A_3 A_1 ?x460 ?x432 ?x486 L_4) 0.0))))
 (let ((?x1475 (* 2.0 L_4)))
 (let ((?x1474 (* (- 2.0) L_3)))
 (let ((?x1473 (* 2.0 A_3)))
 (let ((?x1472 (* (- 2.0) A_4)))
 (let (($x50595 (or $x81 (<= (+ ?x379 (* 2.0 S_2) ?x432 L_4 B) 0.0) (<= (+ ?x1472 ?x1473 ?x1474 S_2 ?x432 ?x1475 ?x1240) 0.0))))
 (let ((?x1040 (* 3.0 B)))
 (let ((?x1487 (* 3.0 L_4)))
 (let ((?x8748 (* 4.0 S_3)))
 (let ((?x1484 (* (- 3.0) A_4)))
 (let (($x4372 (<= (+ ?x1472 (* (- 1.0) A_1) (* 3.0 S_3) L_1 ?x1475 ?x1040) 0.0)))
 (let (($x16560 (<= (+ ?x379 A_3 (* (- 1.0) A_1) ?x460 S_2 L_1 L_4 ?x1240) 0.0)))
 (let (($x61186 (or $x51 $x81 (<= (+ ?x379 ?x960 (* 3.0 S_2) ?x961 L_4 ?x1040) 0.0) $x16560)))
 (let ((?x6650 (* (/ 3.0 2.0) L_3)))
 (let ((?x7866 (* (- (/ 1.0 2.0)) L_1)))
 (let ((?x447 (* (- 1.0) L_4)))
 (let ((?x5053 (* (/ 1.0 2.0) A_1)))
 (let ((?x6652 (* (- (/ 3.0 2.0)) A_3)))
 (let ((?x4388 (* (- 5.0) L_1)))
 (let ((?x4352 (* (- 3.0) S_0)))
 (let ((?x4373 (* 5.0 A_1)))
 (let (($x135020 (or $x81 (<= (+ ?x379 A_2 A_1 ?x473 (* (- 1.0) S_0) ?x486 L_4) 0.0) (<= (+ ?x1472 ?x4373 ?x4352 ?x4388 ?x1475 ?x1030) 0.0) (<= (+ ?x1472 ?x1473 A_1 ?x1474 (* (- 1.0) S_0) ?x486 ?x1475 B) 0.0))))
 (let ((?x965 (* (- 1.0) S_0)))
 (let ((?x8408 (+ (* (- (/ 2.0 3.0)) A_4) (* (/ 5.0 3.0) S_1) ?x965 (* (/ 2.0 3.0) L_4) (* (/ 2.0 3.0) B))))
 (let (($x61156 (or $x81 (<= ?x8408 0.0) (<= (+ ?x1472 ?x1473 ?x1474 S_1 ?x965 ?x1475 ?x1240) 0.0) (<= (+ ?x379 A_2 ?x473 S_1 ?x965 L_4 B) 0.0))))
 (let (($x56478 (<= (- 5.0) (+ (* (- 1.0) A_1) S_0 L_1))))
 (let ((?x11004 (* (/ 1.0 4.0) S_0)))
 (let (($x53871 (<= (+ (* (- (/ 1.0 4.0)) A_4) ?x11004 (* (/ 1.0 4.0) L_4) (* (/ 1.0 4.0) B)) (- 5.0))))
 (let (($x52672 (<= (+ ?x379 A_2 ?x473 L_4 B) (- 10.0))))
 (let (($x50722 (or $x81 (<= (+ ?x1484 (* (- 1.0) A_0) ?x8748 ?x1487 ?x1040 L_0) 0.0))))
 (let (($x26673 (<= (+ ?x379 A_3 (* (- 1.0) A_1) ?x460 S_2 L_1 L_4 B) 0.0)))
 (let ((?x632 (+ L_3 ?x447)))
 (let (($x282 (<= 0.0 ?x632)))
 (let (($x134532 (or $x282 (<= (+ ?x379 ?x960 ?x961 (* 3.0 S_2) L_4 B) 0.0) $x26673)))
 (let (($x30419 (<= (+ ?x1472 ?x1473 (* (- 1.0) A_0) ?x1474 S_2 ?x1475 ?x1240 L_0) 0.0)))
 (let (($x8548 (<= (+ ?x379 (* (- 1.0) A_0) (* 2.0 S_2) L_4 B L_0) 0.0)))
 (let ((?x3295 (* 2.0 L_0)))
 (let ((?x1963 (* 2.0 S_1)))
 (let ((?x3294 (* (- 2.0) A_0)))
 (let (($x25775 (<= (+ ?x379 A_3 (* (- 1.0) A_0) ?x460 S_1 L_4 B L_0) 0.0)))
 (let ((?x5368 (* (/ 1.0 3.0) B)))
 (let ((?x5749 (* (/ 1.0 3.0) L_4)))
 (let ((?x991 (* (- 1.0) A_0)))
 (let ((?x5746 (* (- (/ 1.0 3.0)) A_4)))
 (let (($x44928 (or $x81 (<= (+ ?x5746 ?x991 (* (/ 4.0 3.0) S_1) ?x5749 ?x5368 L_0) 0.0) $x25775 (<= (+ ?x379 A_2 ?x3294 ?x473 ?x1963 L_4 B ?x3295) 0.0))))
 (let (($x54902 (<= (+ A_2 ?x473 (* (- 1.0) S_4)) (- 5.0))))
 (let (($x298 (<= 0.0 (+ (* (- 1.0) A_3) S_4 L_3))))
 (let (($x60992 (or $x298 (<= (+ ?x5053 ?x7866 (* (- (/ 1.0 2.0)) S_4)) (- 5.0)) (<= (+ (* (- (/ 1.0 3.0)) S_4) (* (/ 1.0 3.0) S_0)) (- 5.0)) $x54902)))
 (let (($x31631 (<= (+ (* 2.0 A_2) (* (- 2.0) S_4) (* (- 2.0) L_2) S_1 ?x965) 0.0)))
 (let (($x60850 (or $x298 (<= (+ ?x991 (* (- (/ 1.0 2.0)) S_4) (* (/ 3.0 2.0) S_1) L_0) 0.0) (<= (+ A_2 ?x991 (* (- 1.0) S_4) ?x473 S_1 L_0) 0.0))))
 (let (($x6961 (<= (+ (* (- (/ 1.0 2.0)) A_1) (* (/ 1.0 2.0) L_1) (* (- (/ 1.0 2.0)) S_4) S_2) 0.0)))
 (let (($x4401 (<= (+ ?x379 ?x4367 (* (- 3.0) A_0) ?x4359 L_4 ?x1030 (* 3.0 L_0)) 0.0)))
 (let (($x129374 (or $x81 (<= (+ ?x379 A_2 ?x922 ?x3294 ?x473 ?x877 L_4 ?x503 ?x3295) 0.0) $x4401 (<= (+ ?x379 A_3 A_1 ?x991 ?x460 ?x486 L_4 L_0) 0.0))))
 (let ((?x1247 (* (- 2.0) B)))
 (let ((?x1481 (* (- 2.0) L_4)))
 (let ((?x1012 (* (- 3.0) S_4)))
 (let ((?x1478 (* 2.0 A_4)))
 (let ((?x13559 (* (- (/ 3.0 4.0)) B)))
 (let ((?x13551 (* (- (/ 3.0 4.0)) L_4)))
 (let ((?x399 (* (- 1.0) S_4)))
 (let ((?x13561 (* (/ 3.0 4.0) A_4)))
 (let (($x288 (<= 0.0 (+ ?x379 ?x387 (* 2.0 S_4) L_2 L_4 B))))
 (let (($x131882 (or $x288 $x298 (<= (+ ?x13561 ?x399 ?x11004 ?x13551 ?x13559) 0.0) (<= (+ ?x1478 A_1 ?x486 ?x1012 ?x1481 ?x1247) 0.0))))
 (let (($x2550 (<= (+ A_1 ?x486 (* (- 1.0) S_2)) 0.0)))
 (let (($x3435 (<= (+ A_2 ?x473 (* (- 1.0) S_3)) 0.0)))
 (let (($x47750 (or $x3435 (<= (+ (* (/ 1.0 2.0) S_4) (* (- 1.0) S_3) (* (/ 1.0 2.0) S_0)) 0.0) (<= (+ ?x922 ?x877 S_4 (* (- 3.0) S_3)) 0.0))))
 (let (($x7053 (<= (+ (* (- 3.0) A_3) (* 4.0 S_2) ?x965 (* 3.0 L_3) ?x1040) 0.0)))
 (let (($x71 (= L_3 L_2)))
 (let (($x45116 (or $x81 (<= (+ ?x1472 (* 3.0 S_3) (* (- 1.0) S_2) ?x1475 ?x1240) 0.0))))
 (let (($x56479 (not $x56478)))
 (let (($x55515 (<= (+ (* (- (/ 1.0 3.0)) A_3) (* (/ 1.0 3.0) S_0) (* (/ 1.0 3.0) L_3) ?x5368) (- 5.0))))
 (let (($x52585 (<= (+ (* (- 1.0) A_3) A_2 ?x473 L_3 B) (- 5.0))))
 (let (($x131982 (or $x71 $x52585 $x55515 (<= (+ (* (- 1.0) A_3) A_1 ?x486 L_3 B) (- 10.0)))))
 (let (($x56336 (<= 0.0 (+ (* (- 1.0) A_1) (* (/ 1.0 2.0) S_3) (* (/ 1.0 2.0) S_0) L_1))))
 (let (($x35237 (<= (+ (* (- 1.0) A_3) L_3 S_4 (* (- (/ 1.0 2.0)) S_3) (* (/ 1.0 2.0) S_0)) 0.0)))
 (let (($x25394 (<= (+ ?x1472 (* (- 1.0) A_1) L_1 (* 3.0 S_3) ?x1475 ?x1240) 0.0)))
 (let ((?x8755 (* 4.0 B)))
 (let ((?x2818 (* 4.0 L_4)))
 (let ((?x2804 (* (- 4.0) A_4)))
 (let ((?x1486 (* (- 3.0) L_3)))
 (let ((?x391 (* (- 1.0) A_1)))
 (let ((?x1485 (* 3.0 A_3)))
 (let ((?x2830 (+ ?x1472 ?x1485 ?x391 L_1 ?x1486 ?x1475 ?x503)))
 (let (($x52442 (<= 0.0 ?x2830)))
 (let ((?x4849 (* (/ 1.0 2.0) B)))
 (let ((?x6606 (* (/ 1.0 2.0) L_3)))
 (let ((?x6642 (* (/ 1.0 2.0) S_1)))
 (let ((?x5983 (* (- (/ 1.0 2.0)) A_3)))
 (let ((?x1480 (* 2.0 L_3)))
 (let ((?x900 (* (- 2.0) L_2)))
 (let ((?x895 (* 2.0 A_2)))
 (let ((?x1479 (* (- 2.0) A_3)))
 (let (($x40767 (or $x71 (<= (+ (* (- 1.0) A_3) ?x1963 ?x965 L_3 B) 0.0) (<= (+ ?x1479 ?x895 ?x900 S_1 ?x965 ?x1480 ?x1240) 0.0))))
 (let (($x2809 (<= (+ ?x1484 (* 4.0 A_3) ?x432 (* (- 4.0) L_3) ?x1487 ?x503) 0.0)))
 (let ((?x1509 (+ ?x379 ?x1473 ?x387 L_2 ?x1474 L_4 ?x503)))
 (let (($x52459 (<= 0.0 ?x1509)))
 (let (($x2811 (<= (+ ?x1478 (* (- 3.0) A_3) S_1 (* 3.0 L_3) ?x1481 B) 0.0)))
 (let ((?x2812 (* (- 3.0) L_4)))
 (let ((?x2803 (* 4.0 L_3)))
 (let ((?x2810 (* (- 4.0) A_3)))
 (let ((?x2765 (* 3.0 A_4)))
 (let (($x18880 (<= (+ (* (- 1.0) A_3) A_2 ?x991 ?x473 S_1 L_3 B L_0) 0.0)))
 (let (($x40328 (or $x71 (<= (+ ?x5983 ?x991 (* (/ 3.0 2.0) S_1) ?x6606 ?x4849 L_0) 0.0) $x18880)))
 (let (($x17693 (<= (+ (* (- 1.0) A_3) A_1 L_3 S_4 (* (- 1.0) S_3) ?x486) 0.0)))
 (let ((?x547 (* (- 1.0) L_0)))
 (let ((?x410 (* (- 1.0) S_3)))
 (let ((?x383 (* (- 1.0) A_3)))
 (let (($x132612 (or $x3435 (<= (+ A_4 ?x383 A_1 ?x447 ?x410 L_3 ?x547 ?x503) 0.0) (<= (+ ?x1478 ?x1479 ?x1480 ?x410 S_0 ?x1481 ?x1247) 0.0))))
 (let ((?x4893 (* (/ 3.0 2.0) B)))
 (let (($x8539 (<= (+ (* (- (/ 3.0 2.0)) A_4) (* (/ 5.0 2.0) S_2) ?x965 (* (/ 3.0 2.0) L_4) ?x4893) 0.0)))
 (let (($x2565 (<= (+ (* (- 3.0) A_2) ?x922 ?x877 S_4 (* 3.0 L_2) ?x1040) 0.0)))
 (let (($x61 (= L_2 L_1)))
 (let (($x25748 (or $x61 $x2565 (<= (+ (* (- 2.0) A_2) S_4 S_0 (* 2.0 L_2) ?x1240) 0.0))))
 (let ((?x4817 (* (- (/ 1.0 2.0)) B)))
 (let ((?x8530 (* (- (/ 1.0 2.0)) L_4)))
 (let ((?x4788 (* (/ 1.0 2.0) S_0)))
 (let ((?x8532 (* (/ 1.0 2.0) A_4)))
 (let (($x130857 (or $x3435 (<= (+ ?x8532 ?x410 ?x4788 ?x8530 ?x4817) 0.0) (<= (+ A_4 ?x922 ?x877 (* (- 3.0) S_3) ?x447 ?x503) 0.0))))
 (let ((?x5481 (* (- (/ 1.0 3.0)) B)))
 (let ((?x16291 (* (- (/ 1.0 3.0)) L_3)))
 (let ((?x5389 (* (/ 2.0 3.0) S_0)))
 (let ((?x421 (* (- 1.0) S_2)))
 (let ((?x17233 (* (/ 1.0 3.0) A_3)))
 (let (($x3473 (<= (+ ?x1479 A_2 ?x473 S_4 ?x1480 ?x1240) 0.0)))
 (let ((?x1513 (* 3.0 L_3)))
 (let ((?x1076 (* 2.0 S_4)))
 (let ((?x1645 (* (- 3.0) A_3)))
 (let ((?x8487 (* (/ 1.0 3.0) S_0)))
 (let (($x12936 (<= (+ (* (- (/ 4.0 3.0)) A_3) S_4 ?x8487 (* (/ 4.0 3.0) L_3) (* (/ 4.0 3.0) B)) 0.0)))
 (let (($x17340 (<= (+ (* (/ 2.0 3.0) A_3) ?x410 ?x8487 (* (- (/ 2.0 3.0)) L_3) (* (- (/ 2.0 3.0)) B)) 0.0)))
 (let (($x130934 (or $x3435 $x17340 (<= 0.0 (+ ?x383 ?x391 (* 2.0 S_3) L_1 L_3 B)))))
 (let ((?x4125 (* (- 5.0) L_2)))
 (let ((?x3360 (* (- 2.0) S_0)))
 (let ((?x3737 (* 5.0 A_2)))
 (let (($x1493 (<= (+ ?x379 ?x1473 ?x387 ?x1474 L_2 L_4 ?x1240) 0.0)))
 (let (($x2837 (<= (+ ?x1484 (* 4.0 A_3) ?x991 (* (- 4.0) L_3) ?x1487 ?x503 L_0) 0.0)))
 (let (($x135047 (or $x3435 (<= (+ (* (/ 1.0 2.0) A_3) ?x410 ?x6642 (* (- (/ 1.0 2.0)) L_3) ?x4817) 0.0))))
 (let (($x53310 (<= (+ (* (- (/ 1.0 2.0)) A_4) (* (/ 1.0 2.0) S_2) (* (/ 1.0 2.0) L_4) ?x4849) (- 5.0))))
 (let (($x129916 (or $x3435 (<= (+ A_4 ?x922 (* (- 3.0) S_3) ?x877 ?x447 ?x1030) 0.0))))
 (let (($x1463 (not $x1493)))
 (let (($x129174 (or $x282 $x1463 (<= (+ ?x1472 ?x1473 A_2 ?x991 ?x1474 ?x473 ?x1475 B L_0) 0.0))))
 (let (($x129171 (or $x282 $x1463 (<= (+ ?x1472 ?x1473 A_2 ?x1474 ?x432 ?x473 ?x1475 B) 0.0))))
 (let (($x129600 (or $x282 $x1463 (= (+ ?x379 A_3 A_2 ?x391 ?x460 L_1 ?x473 L_4) 0.0) (not (<= 0.0 (+ ?x379 A_3 A_2 ?x391 ?x460 L_1 ?x473 L_4))))))
 (let (($x23203 (<= (+ ?x383 (* (- (/ 1.0 2.0)) A_2) L_3 S_4 ?x4788 (* (/ 1.0 2.0) L_2) ?x4849) 0.0)))
 (let (($x34602 (or $x61 (<= (+ ?x383 ?x387 A_1 L_3 S_4 ?x486 L_2 B) 0.0) $x23203)))
 (let (($x29810 (or $x71 (<= (+ ?x383 ?x391 L_1 (* 2.0 S_2) L_3 B) 0.0))))
 (let ((?x973 (* (- 3.0) L_2)))
 (let ((?x972 (* 3.0 A_2)))
 (let ((?x2511 (+ ?x379 ?x972 ?x960 ?x961 ?x973 L_4 ?x1247)))
 (let (($x54348 (<= 0.0 ?x2511)))
 (let (($x14710 (<= (+ A_4 (* (- 2.0) A_2) S_0 (* 2.0 L_2) ?x447 B) 0.0)))
 (let (($x14608 (<= (+ A_4 (* (- 3.0) A_2) ?x1963 (* 3.0 L_2) ?x447 ?x1240) 0.0)))
 (let (($x61751 (or $x81 $x1493 (<= (+ ?x379 ?x972 (* (- 2.0) S_2) ?x973 L_4 ?x1247) 0.0))))
 (let (($x10193 (<= (+ (* (- 4.0) A_1) S_4 (* 3.0 S_0) (* 4.0 L_1) ?x8755) 0.0)))
 (let (($x32927 (or $x71 (<= (+ ?x1479 ?x991 (* 3.0 S_2) ?x1480 ?x1240 L_0) 0.0))))
 (let (($x2555 (<= (+ (* (- 2.0) A_2) A_1 ?x486 S_3 (* 2.0 L_2) ?x1240) 0.0)))
 (let (($x61785 (or $x61 $x2555 (<= (+ (* (- (/ 3.0 2.0)) A_2) S_3 ?x4788 (* (/ 3.0 2.0) L_2) ?x4893) 0.0))))
 (let (($x53678 (or $x61 (<= (+ ?x387 A_1 ?x486 L_2 B) (- 5.0)) (<= (+ (* (- (/ 1.0 2.0)) A_2) ?x4788 (* (/ 1.0 2.0) L_2) ?x4849) (- 5.0)))))
 (let (($x131069 (or $x3435 (<= (+ A_4 ?x383 A_1 L_3 ?x410 ?x486 ?x447 ?x1247) 0.0))))
 (let (($x26937 (or $x61 (<= (+ (* (- 3.0) A_2) S_4 ?x1963 (* 3.0 L_2) ?x1040) 0.0))))
 (let (($x56957 (or $x298 (<= (+ ?x991 (* (- 2.0) S_4) (* 3.0 S_2) L_0) 0.0))))
 (let (($x30507 (or $x81 (<= (+ ?x379 ?x387 L_2 (* 2.0 S_3) L_4 B) 0.0))))
 (let ((?x13534 (* (- (/ 1.0 4.0)) B)))
 (let ((?x13550 (* (- (/ 1.0 4.0)) L_4)))
 (let ((?x11050 (* (/ 3.0 4.0) S_0)))
 (let ((?x13538 (* (/ 1.0 4.0) A_4)))
 (let (($x7245 (<= (+ A_4 (* (- 3.0) A_2) ?x1963 (* 3.0 L_2) ?x460 ?x1240) 0.0)))
 (let (($x1239 (not $x81)))
 (let (($x133865 (or $x61 $x81 (<= (+ ?x379 ?x387 (* 2.0 S_3) L_2 L_4 ?x1240) 0.0))))
 (let ((?x1490 (+ ?x379 A_3 A_2 ?x391 ?x460 L_1 ?x473 L_4)))
 (let (($x51478 (<= 0.0 ?x1490)))
 (let ((?x646 (+ L_1 ?x473)))
 (let (($x276 (<= 0.0 ?x646)))
 (let (($x129261 (or $x276 (<= (+ ?x1478 ?x1479 ?x387 ?x1480 S_0 L_2 ?x1481 ?x503) 0.0) $x51478)))
 (let ((?x8518 (* (/ 1.0 2.0) L_4)))
 (let ((?x4942 (* (- (/ 3.0 2.0)) L_2)))
 (let ((?x4941 (* (/ 3.0 2.0) A_2)))
 (let ((?x8524 (* (- (/ 1.0 2.0)) A_4)))
 (let (($x54042 (<= 0.0 (+ ?x8524 ?x4941 ?x391 ?x4942 L_1 ?x8518))))
 (let (($x909 (<= (+ (* (- 3.0) A_2) ?x922 S_4 ?x877 (* 3.0 L_2) B) 0.0)))
 (let (($x64383 (or $x298 (<= (+ ?x922 ?x399 ?x965 ?x877 ?x1247) 0.0) (<= (+ ?x895 A_1 (* (- 2.0) S_4) ?x900 ?x965 ?x486 ?x503) 0.0))))
 (let (($x55798 (or $x51 $x71 (<= (+ ?x383 ?x391 (* 2.0 S_2) L_1 L_3 ?x1240) 0.0))))
 (let (($x3234 (<= (+ ?x383 (* 3.0 A_1) ?x3294 (* (- 3.0) L_1) L_3 ?x1247 ?x3295) 0.0)))
 (let (($x134691 (or $x71 $x3234 (<= (+ ?x383 A_2 A_1 ?x991 ?x473 ?x486 L_3 L_0) 0.0))))
 (let (($x3278 (<= (+ ?x383 (* 3.0 A_1) ?x1948 (* (- 3.0) L_1) L_3 ?x1247) 0.0)))
 (let (($x129728 (or $x71 $x3278 (<= (+ ?x383 A_2 A_1 ?x473 ?x432 ?x486 L_3) 0.0))))
 (let (($x62631 (or $x2550 (<= (+ A_4 ?x387 L_2 (* (- 2.0) S_2) ?x3221 ?x447 ?x503) 0.0))))
 (let (($x2101 (not $x51)))
 (let ((?x4355 (* 4.0 L_1)))
 (let ((?x4369 (* 3.0 S_0)))
 (let ((?x4357 (* (- 4.0) A_1)))
 (let (($x129552 (or $x282 (<= (+ ?x379 A_3 A_2 ?x460 ?x421 ?x473 L_4) 0.0) $x1463)))
 (let (($x9289 (<= (+ ?x379 A_3 A_2 ?x391 ?x460 ?x473 L_1 L_4 B) 0.0)))
 (let (($x134708 (or $x276 (not $x9289) (= (+ ?x379 A_3 A_2 ?x391 ?x460 L_1 ?x473 L_4 B) 0.0))))
 (let (($x131565 (or $x71 (<= (+ ?x1479 ?x895 A_1 ?x900 ?x965 ?x486 ?x1480 B) 0.0) (<= (+ ?x383 ?x922 ?x965 ?x877 L_3 ?x503) 0.0))))
 (let ((?x4943 (* (- (/ 3.0 2.0)) B)))
 (let ((?x6838 (* (- (/ 3.0 2.0)) L_1)))
 (let ((?x5086 (* (- (/ 1.0 2.0)) S_4)))
 (let ((?x5057 (* (/ 3.0 2.0) A_1)))
 (let (($x131807 (or $x298 (<= (+ ?x5057 ?x5086 ?x432 ?x6838 ?x4943) 0.0) (<= (+ A_2 A_1 ?x399 ?x473 ?x432 ?x486 ?x503) 0.0))))
 (let (($x129205 (or $x298 (<= (+ ?x5057 ?x991 ?x5086 ?x6838 ?x4943 L_0) 0.0) (<= (+ A_2 A_1 ?x991 ?x399 ?x473 ?x486 ?x503 L_0) 0.0))))
 (let (($x55057 (or $x51 $x298 (<= (+ (* (- (/ 1.0 2.0)) A_1) ?x5086 S_2 (* (/ 1.0 2.0) L_1) ?x4849) 0.0))))
 (let (($x67768 (or (<= (+ A_3 A_1 (* (- 2.0) S_3) ?x486 ?x460 ?x1247) 0.0) $x3435)))
 (let (($x1954 (<= (+ (* (- 2.0) A_2) (* 3.0 S_1) ?x965 (* 2.0 L_2) ?x1240) 0.0)))
 (let (($x131397 (or $x276 $x1239 (<= (+ A_4 ?x383 ?x387 A_1 ?x486 L_2 ?x503) 0.0))))
 (let (($x129689 (or $x51 $x81 (= (+ ?x379 ?x972 ?x960 ?x961 ?x973 L_4) 0.0) $x1493 (not $x54042))))
 (let (($x10532 (<= (+ A_1 ?x410 ?x486 ?x503) (- 5.0))))
 (let (($x16287 (or $x61 (<= (+ (* (- 2.0) A_2) S_3 S_1 (* 2.0 L_2) ?x1240) 0.0))))
 (let (($x130024 (or $x51 (<= (+ (* (- 3.0) A_1) S_3 ?x3221 (* 3.0 L_1) ?x1040) 0.0))))
 (let (($x61660 (or $x298 (<= (+ A_4 A_2 (* (- 2.0) S_4) ?x473 ?x447 ?x1247) 0.0))))
 (let (($x354 (not (<= 0.0 (+ ?x486 L_0)))))
 (let (($x129697 (or $x61 $x354 (<= (+ A_4 ?x383 ?x387 A_1 L_3 L_2 ?x447 ?x503 ?x547) 0.0))))
 (let ((?x5743 (* (- (/ 2.0 3.0)) B)))
 (let ((?x5729 (* (- (/ 2.0 3.0)) L_4)))
 (let ((?x8966 (* (/ 1.0 3.0) S_1)))
 (let ((?x5735 (* (/ 2.0 3.0) A_4)))
 (let (($x8948 (<= (+ (* (/ 1.0 3.0) A_4) ?x410 (* (/ 2.0 3.0) S_1) (* (- (/ 1.0 3.0)) L_4) ?x5481) 0.0)))
 (let (($x131463 (or $x2550 (<= (+ (* (/ 1.0 2.0) A_2) ?x421 ?x4788 (* (- (/ 1.0 2.0)) L_2) ?x4817) 0.0))))
 (let ((?x970 (+ ?x383 ?x895 ?x391 L_1 ?x900 L_3 ?x503)))
 (let (($x318 (<= 0.0 ?x970)))
 (let (($x63863 (or $x298 (<= (+ ?x972 ?x991 (* (- 2.0) S_4) ?x973 ?x1030 L_0) 0.0))))
 (let (($x10128 (<= (+ (* 3.0 A_1) (* (- 2.0) S_3) ?x965 (* (- 3.0) L_1) ?x1030) 0.0)))
 (let (($x3162 (<= (+ A_3 (* (- 3.0) A_1) ?x3221 (* 3.0 L_1) ?x460 ?x1240) 0.0)))
 (let (($x1416 (= (+ ?x379 ?x1473 ?x387 L_2 ?x1474 L_4) 0.0)))
 (let (($x134543 (or $x61 $x81 $x1416 (not (<= 0.0 (+ ?x379 ?x1473 ?x387 ?x1474 L_2 L_4))))))
 (let (($x853 (<= (+ (* (- 2.0) A_2) A_1 S_3 ?x486 (* 2.0 L_2) B) 0.0)))
 (let ((?x854 (* 2.0 L_2)))
 (let ((?x966 (* (- 3.0) L_1)))
 (let ((?x964 (* 3.0 A_1)))
 (let ((?x823 (* (- 2.0) A_2)))
 (let (($x132060 (or $x282 $x1463 (<= (+ ?x1484 ?x1485 A_2 ?x1486 ?x965 ?x473 ?x1487 ?x1240) 0.0))))
 (let (($x678 (<= (+ A_2 ?x399 ?x473 ?x503) (- 5.0))))
 (let (($x2829 (<= (+ ?x2804 (* 5.0 A_3) ?x965 (* (- 5.0) L_3) ?x2818 ?x503) 0.0)))
 (let (($x1659 (not $x61)))
 (let ((?x639 (+ L_2 ?x460)))
 (let (($x368 (<= 0.0 ?x639)))
 (let (($x53868 (or $x51 $x282 $x368 (= (+ ?x1472 ?x1485 ?x391 L_1 ?x1486 ?x1475) 0.0) $x52459)))
 (let (($x52460 (not $x52459)))
 (let (($x53120 (or $x51 $x81 $x52460 (<= 0.0 (+ A_3 ?x823 A_1 ?x486 ?x854 ?x460 ?x1247)))))
 (let (($x1459 (<= (+ ?x1473 (* (- 3.0) A_2) S_0 (* 3.0 L_2) ?x1474 B) 0.0)))
 (let (($x1649 (<= (+ ?x1645 (* 4.0 A_2) ?x965 (* (- 4.0) L_2) ?x1513 ?x503) 0.0)))
 (let (($x953 (<= (+ A_1 ?x421 ?x486 ?x503) 0.0)))
 (let (($x1253 (<= (+ (* 4.0 A_2) ?x1012 ?x965 (* (- 4.0) L_2) (* (- 4.0) B)) 0.0)))
 (let (($x1108 (<= (+ A_3 ?x399 ?x460 ?x503) 0.0)))
 (let (($x770 (<= (+ A_2 ?x410 ?x473 ?x503) 0.0)))
 (let (($x108 (>= S_1 S_0)))
 (let (($x111 (>= S_2 S_1)))
 (let (($x114 (>= S_3 S_2)))
 (let (($x117 (>= S_4 S_3)))
 (let (($x119 (>= A_1 A_0)))
 (let (($x120 (>= A_2 A_1)))
 (let (($x121 (>= A_3 A_2)))
 (let (($x122 (>= A_4 A_3)))
 (and $x122 $x121 $x120 $x119 $x117 $x114 $x111 $x108 (or $x51 $x354) (or $x61 (<= (+ ?x387 S_2 L_2 B) 0.0)) (or $x51 (<= (+ ?x391 S_1 L_1 B) 0.0)) $x770 (or $x298 (<= (+ ?x895 ?x399 ?x421 ?x900 ?x1247) 0.0)) (or $x81 (not $x282)) (or $x81 (<= (+ ?x379 S_4 L_4 B) 0.0)) (or $x61 (not $x276)) (or $x71 (not $x368)) $x1108 (or $x71 (<= (+ ?x383 A_2 ?x473 L_3) (- 5.0))) (or $x71 (<= (+ ?x383 S_3 L_3 B) 0.0)) (or $x298 $x1253) $x953 (or $x61 (<= (+ ?x387 A_1 ?x486 L_2) (- 5.0))) (or $x51 (<= (+ A_2 ?x960 S_0 ?x961 ?x473 B) 0.0)) (or $x51 $x61 $x368 (= (+ ?x383 ?x895 ?x391 L_1 ?x900 L_3) 0.0)) (or $x61 (<= (+ A_3 ?x823 A_1 ?x854 ?x460 ?x547) 0.0) $x2101) (or $x71 (<= (+ ?x383 ?x895 ?x421 ?x900 L_3 ?x503) 0.0)) (or $x61 $x282 $x368 $x1416) (or $x71 (not $x318) (= ?x970 0.0)) (or $x368 (<= (+ ?x1479 ?x972 ?x991 ?x973 ?x1480 ?x503 L_0) 0.0)) (or $x71 (<= (+ ?x1479 A_2 S_4 ?x473 ?x1480 B) 0.0)) (or $x368 $x1649) (or $x368 (<= (+ ?x1479 ?x972 ?x432 ?x973 ?x1480 ?x503) 0.0)) (or $x61 $x318 $x1459) (or $x61 (<= (+ A_3 ?x823 S_1 ?x854 ?x460 B) 0.0)) (or $x71 $x1239 (<= 0.0 (+ ?x379 ?x1473 ?x387 L_2 ?x460))) (or $x71 (<= (+ A_4 ?x1479 S_2 ?x1480 ?x447 B) 0.0)) (or $x81 (<= (+ ?x379 A_3 ?x460 L_4) (- 5.0))) (or $x81 (<= (+ ?x379 ?x1473 ?x410 ?x1474 L_4 ?x503) 0.0)) $x53120 $x53868 (or $x71 $x1659 (<= (+ A_4 ?x1479 A_2 ?x486 ?x1480 ?x447) 0.0)) (or $x81 (= ?x1509 0.0) $x52460) (or $x282 $x2829) $x678 (or $x61 (<= (+ ?x387 ?x922 ?x991 ?x877 L_2 ?x503 L_0) 0.0)) $x132060 (or $x298 (<= (+ ?x399 S_2) (- 5.0))) (or $x298 (<= (+ ?x8532 ?x399 (* (/ 1.0 2.0) S_2) ?x8530 ?x4817) 0.0)) (or $x81 (<= (+ ?x379 S_3 L_4 B) (- 5.0))) (or $x61 (<= (+ ?x823 ?x964 ?x965 ?x966 ?x854 ?x503) 0.0)) (or $x61 $x853) (or $x51 (<= (+ ?x960 S_2 S_0 ?x961 ?x1240) 0.0)) (or $x71 (<= (+ ?x1479 S_4 S_2 ?x1480 ?x1240) 0.0)) (or $x61 (<= (+ ?x387 ?x922 ?x432 ?x877 L_2 ?x503) 0.0)) $x134543 (or $x51 $x3162) (or $x51 (<= (+ A_3 ?x387 ?x391 L_2 S_0 L_1 ?x460) 0.0)) (or $x51 $x298 (not $x318)) (or $x3435 (<= (+ ?x922 ?x410 ?x432 ?x877 ?x1247) 0.0)) (or $x3435 $x10128) (or $x3435 (<= (+ ?x922 ?x991 ?x410 ?x877 ?x1247 L_0) 0.0)) $x63863 (or $x298 (<= (+ ?x972 (* (- 2.0) S_4) ?x432 ?x973 ?x1030) 0.0)) (or $x51 $x318 (<= (+ ?x895 ?x391 ?x399 L_1 ?x900 ?x503) 0.0)) (or $x61 (not $x71) (<= 0.0 (+ ?x383 ?x895 ?x391 L_1 ?x473))) $x131463 (or $x2550 (<= (+ (* (/ 1.0 3.0) S_3) ?x421 ?x5389) 0.0)) (or $x2550 (<= (+ (* (/ 1.0 4.0) S_4) ?x421 ?x11050) 0.0)) (or $x3435 $x8948) (or $x288 $x298 (<= (+ ?x5735 ?x399 ?x8966 ?x5729 ?x5743) 0.0)) (or $x61 (<= (+ ?x387 S_1 L_2 B) (- 5.0))) $x129697 (or $x61 (<= (+ ?x387 ?x991 ?x1963 L_2 B L_0) 0.0)) (or $x3435 (<= (+ (* (- 2.0) S_3) (* 3.0 S_1) ?x965) 0.0)) (or $x3435 (<= (+ ?x991 ?x410 ?x1963 L_0) 0.0)) (or $x282 (<= (+ ?x1472 ?x1485 ?x421 ?x1486 ?x1475 ?x503) 0.0)) (or $x3435 (<= (+ (* (/ 1.0 3.0) S_4) ?x410 (* (/ 2.0 3.0) S_1)) 0.0)) (or $x3435 (<= (+ ?x922 S_4 (* (- 3.0) S_3) ?x877 ?x1247) 0.0)) $x61660 $x130024 $x16287 (or $x61 (<= 0.0 (+ ?x379 ?x972 ?x960 ?x961 ?x973 L_3)) $x1239) (or $x51 $x1239 (<= (+ A_4 ?x383 ?x391 S_0 L_1) 0.0)) (or $x51 $x282 $x1463 $x9289) (or $x276 (<= (+ ?x383 ?x387 A_1 L_3 S_4 ?x486 L_2) 0.0)) (or $x3435 (<= (+ ?x383 A_1 L_3 S_4 ?x410 ?x486 ?x503) 0.0)) $x10532 $x129689 $x131397 (or $x61 $x1954) (or $x1239 $x3435 (<= (+ A_4 ?x383 A_1 ?x410 ?x486 ?x1247) 0.0)) $x67768 $x55057 $x129205 $x131807 (or $x51 (<= (+ ?x391 S_0 L_1 B) (- 5.0))) $x131565 (or $x51 $x71 $x1659 (<= (+ ?x383 ?x895 ?x391 ?x486 L_3) 0.0)) (or $x71 (<= (+ ?x383 S_2 L_3 B) (- 5.0))) (or $x2550 (<= (+ ?x421 S_0) (- 5.0))) $x134708 (or $x276 (<= (+ A_4 ?x383 ?x387 L_3 S_1 L_2 ?x447) 0.0)) $x129552 (or $x2550 (<= (+ A_3 ?x387 L_2 ?x421 S_0 ?x460 ?x503) 0.0)) (or $x61 (<= (+ ?x383 ?x387 L_3 S_4 S_1 L_2 B) 0.0)) (or $x51 (<= (+ A_4 ?x383 ?x391 L_3 S_0 L_1 ?x447) 0.0)) (or $x51 (<= (+ A_4 ?x4357 ?x4369 ?x4355 ?x447 ?x1040) 0.0)) (or $x51 (<= (+ A_4 ?x387 ?x960 L_2 ?x3221 ?x961 ?x447 B) 0.0)) (or $x71 $x2101 (<= (+ ?x1478 ?x1645 A_1 ?x1513 ?x1481 ?x547) 0.0) $x52459) $x62631 (or $x288 $x298 (<= (+ ?x1478 A_1 ?x1012 ?x486 ?x1481 ?x1030) 0.0)) $x129728 (or $x51 (<= (+ ?x387 ?x391 L_2 S_3 S_0 L_1 B) 0.0)) $x134691 $x55798 (or $x51 (<= (+ ?x383 ?x391 L_3 S_4 S_0 L_1 B) 0.0)) (or $x298 (<= (+ ?x895 ?x391 L_1 ?x399 ?x900 ?x1247) 0.0)) $x64383 (or $x61 $x909) (or $x61 $x54042) $x129261 $x133865 (or $x81 $x1493 (<= (+ ?x379 ?x895 ?x991 ?x900 L_4 ?x503 L_0) 0.0)) (or $x61 $x1239 $x7245) (or $x3435 (<= (+ ?x410 S_1) (- 5.0))) (or $x2550 (<= (+ ?x13538 ?x421 ?x11050 ?x13550 ?x13534) 0.0)) (or $x1239 $x2550 (<= (+ A_4 ?x383 ?x421 S_0 ?x503) 0.0)) (or $x2550 (<= (+ ?x387 S_3 L_2 ?x421 S_0) 0.0)) $x30507 $x56957 (or $x298 (<= (+ ?x1012 (* 4.0 S_2) ?x965) 0.0)) $x26937 (or $x298 (<= (+ ?x5086 ?x6642) (- 5.0)) $x54902) (or $x298 (<= (+ (* (- 2.0) S_4) (* 3.0 S_2) ?x432) 0.0)) (or $x71 (<= (+ ?x383 A_1 ?x486 L_3) (- 10.0))) $x131069 (or $x81 (<= (+ ?x379 A_2 ?x473 L_4) (- 10.0))) $x53678 $x61785 $x32927 (or $x71 (<= (+ ?x1645 A_1 ?x1076 ?x486 ?x1513 ?x1240) 0.0) $x3473) (or $x51 $x10193) $x61751 (or $x61 $x14608) (or $x282 $x1493 (<= (+ ?x379 ?x895 ?x432 ?x900 L_4 ?x503) 0.0)) (or $x61 $x14710 $x54348) (or $x81 $x1493 (= ?x2511 0.0) (not $x54348)) $x29810 $x34602 (or $x3435 (<= (+ A_4 ?x383 L_3 ?x410 S_1 ?x447 ?x503) 0.0)) (or $x3435 (<= (+ A_1 ?x410 ?x486) (- 5.0)) $x56479) $x129600 $x129171 $x129174 $x129916 (or $x3435 (<= (+ (* (- (/ 1.0 2.0)) S_3) ?x4788) (- 5.0)) $x56478) (or $x81 $x50861 $x53310) (or $x2550 (<= (+ A_4 ?x383 L_3 ?x421 S_0 ?x447 ?x503) 0.0)) (or $x81 $x50861 $x52672 (<= (+ ?x5746 ?x8966 ?x5749 ?x5368) (- 5.0))) $x135047 (or $x298 (<= (+ ?x5053 ?x5086 ?x7866 ?x4817) (- 5.0))) (or $x282 $x2837) (or $x81 $x1493 (<= (+ ?x1484 ?x3737 ?x3360 ?x4125 ?x1487 ?x1247) 0.0)) $x130934 (or $x71 (<= (+ ?x1479 (* 3.0 S_2) ?x432 ?x1480 ?x1240) 0.0)) (or $x71 $x3473 $x12936 (<= (+ ?x1645 A_1 ?x486 ?x1076 ?x1513 ?x1040) 0.0)) (or $x71 $x3473 (<= (+ ?x6652 S_4 ?x6642 ?x6650 ?x4893) 0.0)) (or $x2550 (<= (+ ?x17233 ?x421 ?x5389 ?x16291 ?x5481) 0.0)) (or $x71 $x1239 $x52459 (<= 0.0 (+ ?x1472 ?x1485 ?x391 L_1 ?x460))) $x130857 (or $x2550 (<= (+ ?x383 L_3 S_4 ?x421 S_0) 0.0)) (or $x3435 (<= (+ ?x383 L_3 S_4 ?x410 S_1) 0.0)) $x25748 (or $x282 $x8539 (<= (+ ?x1484 ?x1485 ?x1486 S_2 ?x965 ?x1487 ?x1040) 0.0)) $x132612 (or $x3435 $x17693 (not $x56336)) $x40328 (or $x71 (<= (+ ?x2765 ?x2810 S_0 ?x2803 ?x2812 B) 0.0) $x52442 $x52459) (or $x71 $x2811 $x52459) (or $x282 $x2809) $x40767 (or $x71 $x52585 (<= (+ ?x5983 ?x6642 ?x6606 ?x4849) (- 5.0))) (or $x282 (= ?x2830 0.0) (not $x52442)) (or $x81 (<= (+ ?x2804 (* 5.0 S_3) ?x965 ?x2818 ?x8755) 0.0)) (or $x81 $x25394) (or $x3435 $x35237 $x56336) $x131982 (or $x81 $x50861 $x52672 (<= (+ ?x379 A_1 ?x486 L_4 B) (- 15.0)) $x56479) $x45116 (or $x71 $x7053) $x47750 (or $x2550 (<= (+ ?x387 L_2 S_4 (* (- 2.0) S_2) ?x3221) 0.0)) $x131882 $x129374 (or $x298 $x6961) $x60850 (or $x298 (<= (+ ?x399 ?x1963 ?x965) 0.0) $x31631) $x60992 $x44928 (or $x81 $x8548 $x30419) $x134532 $x50722 (or $x81 $x50861 $x52672 $x53871 $x56478) $x61156 $x135020 (or $x51 $x81 (<= 0.0 (+ A_4 ?x6652 ?x5053 ?x447 ?x7866 ?x6650))) $x61186 (or $x51 $x81 $x4372) (or $x81 (<= (+ ?x1484 ?x8748 ?x432 ?x1487 ?x1040) 0.0)) $x50595 $x133284 $x131346 (or $x51 (<= (+ ?x387 ?x960 L_2 S_4 ?x3221 ?x961 ?x1240) 0.0)) $x463 $x34 (<= (+ ?x379 L_4 S_4) 0.0) (<= (+ ?x991 S_0 L_0) 0.0) (<= (+ ?x391 L_1 S_1) 0.0) (<= (+ ?x387 L_2 S_2) 0.0) (<= (+ ?x383 L_3 S_3) 0.0))))))))))))))))))))))))))))))))))))))))))))))))))))))))))))))))))))))))))))))))))))))))))))))))))))))))))))))))))))))))))))))))))))))))))))))))))))))))))))))))))))))))))))))))))))))))))))))))))))))))))))))))))))))))))))))))))))))))))))))))))))))))))))))))))))))))))))))))))))))))
(check-sat)
